(set-logic ALL)
(declare-fun i1 () Int)
(declare-fun it176 () Int)
(declare-fun it177 () Int)
(declare-fun i2 () Int)
(declare-fun it178 () Int)
(declare-fun i3 () Int)
(declare-fun it179 () Int)
(declare-fun i4 () Int)
(declare-fun it180 () Int)
(declare-fun i5 () Int)
(declare-fun it181 () Int)
(declare-fun i6 () Int)
(declare-fun i7 () Int)
(declare-fun it182 () Int)
(declare-fun it258 () Int)
(declare-fun it259 () Int)
(declare-fun it260 () Int)
(declare-fun it261 () Int)
(declare-fun it262 () Int)
(declare-fun it263 () Int)
(declare-fun it264 () Int)
(declare-fun it275 () Int)
(declare-fun it276 () Int)
(declare-fun it277 () Int)
(declare-fun it278 () Int)
(declare-fun it279 () Int)
(declare-fun it280 () Int)
(declare-fun it281 () Int)
(declare-fun it289 () Int)
(declare-fun it290 () Int)
(declare-fun it291 () Int)
(declare-fun it292 () Int)
(declare-fun it293 () Int)
(declare-fun it294 () Int)
(declare-fun it295 () Int)
(declare-fun it82 () Int)
(assert (= (+ i1 (- 1)) 0))
(assert (= (+ it176 (- 2)) 0))
(assert (= (+ (* i2 (- 1)) it177 (- 1)) 0))
(assert (= (+ (* i3 (- 1)) it178) 0))
(assert (= (+ (* i4 (- 1)) it179) 0))
(assert (= (+ (* i5 (- 1)) it180) 0))
(assert (= (+ (* i6 (- 1)) it181) 0))
(assert (= (+ it182 (* i7 (- 1))) 0))
(assert (and (<= (+ (* it181 (- 1)) (- 5)) 0)
     (<= (+ it181 (- 5)) 0)
     (> it178 0)
     (= (+ it176 (- 2)) 0)))
(assert (= (+ it258 (- 3)) 0))
(assert (= (+ it259 (* it177 (- 1)) (- 2)) 0))
(assert (= (+ it260 (* it178 (- 1))) 0))
(assert (= (+ it261 (* it178 (- 1))) 0))
(assert (= (+ (* it182 (- 1)) it262) 0))
(assert (= (+ it263 (* it181 (- 1))) 0))
(assert (= (+ (* it182 (- 1)) it264) 0))
(assert (let ((a!1 (< (+ (exp it263 5) (exp it261 2) (+ 0 (* it262 (- 1)))) (+ 0 0))))
  (and (> it261 0) a!1 (= (+ it258 (- 3)) 0))))
(assert (= (+ it275 (- 3)) 0))
(assert (= (+ (* it259 (- 1)) it276 (- 2)) 0))
(assert (= (+ (* it260 (- 1)) it277) 0))
(assert (= (+ (* it261 2) it278) 0))
(assert (= (+ (+ 0 it279) (* (exp it263 3) (+ 0 2)) (+ 0 (* it262 (- 3))))
   (+ 0 0)))
(assert (= (+ (* it263 (- 1)) it280) 0))
(assert (= (+ (* it264 (- 1)) it281) 0))
(assert (let ((a!1 (< (+ (exp it278 2) (exp it280 5) (+ 0 (* it279 (- 1)))) (+ 0 0))))
  (and (< it278 0) (= (+ it275 (- 3)) 0) a!1)))
(assert (= (+ it289 (- 3)) 0))
(assert (= (+ (* it276 (- 1)) it290 (- 2)) 0))
(assert (= (+ it291 (* it277 (- 1))) 0))
(assert (= (+ it292 (* it278 2)) 0))
(assert (let ((a!1 (+ (+ 0 (+ (* it279 (- 3)) it293)) (* (exp it280 3) (+ 0 2)))))
  (= a!1 (+ 0 0))))
(assert (= (+ it294 (* it280 (- 1))) 0))
(assert (= (+ it295 (* it281 (- 1))) 0))
(assert (let ((a!1 (> (+ (* (exp it292 2) (+ 0 (- 1)))
                 (* (exp it294 5) (+ 0 (- 1)))
                 (+ 0 it293))
              (+ 0 0)))
      (a!2 (> (+ (* (exp it292 2) (+ 0 (- 4)))
                 (* (exp it294 5) (+ 0 (- 1)))
                 (+ 0 (* it293 3))
                 (* (exp it294 3) (+ 0 (- 2))))
              (+ 0 0)))
      (a!3 (* (* (exp it294 3) (exp 9 (+ it82 (- 1)))) (+ 0 (- 3))))
      (a!4 (* (exp (exp 4 (+ it82 (- 1))) (+ 0 2)) (exp it292 2)))
      (a!5 (* (* (exp 9 (+ it82 (- 1))) (+ 0 it293)) (+ 0 3)))
      (a!7 (* (* (exp it294 3) (exp 9 (+ it82 (- 1)))) (+ 0 (- 1)))))
(let ((a!6 (> (+ a!3
                 (* (exp it294 5) (+ 0 (- 1)))
                 (* a!4 (+ 0 (- 4)))
                 a!5
                 (exp it294 3))
              (+ 0 0)))
      (a!8 (+ a!7
              (* (exp it294 5) (+ 0 (- 1)))
              (* a!4 (+ 0 (- 1)))
              (* (exp 9 (+ it82 (- 1))) (+ 0 it293))
              (exp it294 3))))
  (and a!1
       (>= (+ it289 (- 3)) 0)
       a!2
       (>= (+ (* it289 (- 1)) 3) 0)
       (> it292 0)
       a!6
       (>= (+ it82 (- 1)) 0)
       (> a!8 (+ 0 0))
       (> (* it292 2) 0)))))
(check-sat)
